24

C 4.66e-07 -1.388302828 -3.438104261
C 5.85e-07 -0.428202044 -4.442718671
C 1.69e-07 0.939907918 -4.130604065
C -3.99e-07 1.365548894 -2.811400444
C -4.36e-07 0.415645016 -1.779994908
C -1.53e-08 -0.963623038 -2.110520984
C -1.1e-06 0.586743534 -0.35729611
C -1.07e-06 -0.586743591 0.357296135
S -4.86e-07 -2.002819074 -0.678235815
S -5.47e-07 2.002819035 0.678235808
C 7.74e-08 0.963623054 2.110520967
C -3.45e-07 -0.415645001 1.779994892
C 5.7e-07 1.388302847 3.438104278
C 5.87e-07 0.428202041 4.442718641
C 1.37e-07 -0.939907929 4.130604063
C -2.74e-07 -1.365548889 2.811400464
H 7e-07 -2.444156104 -3.681888322
H 9.85e-07 -0.742543696 -5.479852032
H 2.03e-07 1.670585708 -4.930929308
H -7.75e-07 2.42256738 -2.570521461
H 7.32e-07 2.444156113 3.681888346
H 8.77e-07 0.742543699 5.479852016
H 9.43e-08 -1.670585678 4.930929345
H -7.38e-07 -2.422567367 2.570521424
