30
BTNT_opt aligned (PC1->z, PC2->y)
S     -0.000317    -1.949190     1.925051
C      0.000303    -0.986883     3.410332
C      0.000833    -0.574586     5.771617
H      0.001100    -0.944049     6.793153
H      0.000097     1.500027     6.370291
H     -0.000943     2.377513     4.052330
C      0.000211     0.810262     5.531248
C     -0.000514     1.306219     4.234398
H      0.000931    -2.551648     4.903981
C      0.000795    -1.481965     4.715681
C     -0.000380     0.410427     3.151032
C     -0.000991     0.654102     1.737274
C     -0.000290     1.172352    -0.715321
C     -0.000655    -1.128449    -1.520957
C     -0.000252    -1.535759    -3.967249
C      0.000581     0.345906    -5.493845
H      0.000884     0.715387    -6.515619
H      0.000871     2.302848    -4.623246
C      0.000570     1.230660    -4.441493
H      0.000220    -1.741658    -6.094184
C      0.000156    -1.052950    -5.253813
H     -0.000569    -2.607067    -3.780594
H     -0.000944    -2.200980    -1.341853
C     -0.000242    -0.650847    -2.850942
C      0.000145     0.768184    -3.095873
H      0.000370     2.736872    -2.189035
C      0.000082     1.666642    -1.999434
C     -0.000542    -0.242606    -0.455418
S     -0.000561     2.132613     0.780005
C     -0.000953    -0.481380     0.962484
