36
DNTT
S       2.478580    0.996826   14.851993
S      -0.961307    2.634962   16.585797
C       1.324089    1.613617   17.427111
C       0.205624    2.100154   15.431925
C       1.374246    1.356940   13.542004
C       0.115017    2.198228   17.885421
C       2.269129    1.208297   18.345350
C       0.170054    1.979095   14.001933
C       1.344539    1.609786   16.003597
C       1.574084    1.083407   12.218897
C       0.681171    2.254160   21.555139
C      -0.119553    2.407400   19.224722
C      -1.576047    2.434217   10.746799
C       0.851246    2.022002   20.162395
C      -0.604800    2.077168   11.716862
C      -0.789764    2.337676   13.082074
C       2.059205    1.409808   19.715421
C       3.013732    1.034370   20.700059
C       2.809634    1.271892   22.021546
C       0.588718    1.430495   11.274747
C       0.751550    1.156962    9.906295
C      -1.375676    2.169112    9.439888
C      -0.205260    1.510180    9.002631
C       1.632076    1.902475   22.452325
H       3.076357    0.802978   18.050607
H       2.377318    0.665062   11.930632
H      -0.115892    2.673272   21.857980
H      -0.926781    2.812720   19.519466
H      -2.368396    2.886275   11.012392
H      -1.572651    2.790500   13.371960
H       3.823083    0.628284   20.413413
H       3.462597    1.004488   22.656378
H       1.547093    0.732487    9.609932
H      -2.033448    2.418127    8.801817
H      -0.097821    1.301774    8.082772
H       1.494179    2.078701   23.375423
