48
HBTBT
S       0.614608    1.277567    1.103391
C      -0.357167    2.398191    0.213800
C       2.020084    2.275433    0.859846
C       3.298758    2.002898    1.309135
C       4.298119    2.894510    1.024069
C       4.042509    4.049847    0.292812
C       2.780644    4.326494   -0.156476
C       1.736776    3.441930    0.128590
H       3.476960    1.229932    1.794831
H       5.162447    2.724763    1.323853
H       4.737045    4.640144    0.107674
H       2.617306    5.098872   -0.647596
S      -0.614608    4.596033   -1.103391
C       0.357167    3.475409   -0.213800
C      -2.020084    3.598167   -0.859846
C      -3.298758    3.870702   -1.309135
C      -4.298119    2.979090   -1.024069
C      -4.042509    1.823753   -0.292812
C      -2.780644    1.547106    0.156476
C      -1.736776    2.431670   -0.128590
H      -3.476960    4.643668   -1.794831
H      -5.162447    3.148837   -1.323853
H      -4.737045    1.233456   -0.107674
H      -2.617306    0.774728    0.647596
