24
C -0.000000 0.723254 -1.229078
C -0.000000 -0.723254 -1.229078
C -0.000000 1.403241 -2.483661
C -0.000000 -1.403241 -2.483661
C -0.000000 0.708008 -3.658249
C -0.000000 -0.708008 -3.658249
C 0.000000 1.389984 0.000001
C 0.000000 0.723253 1.229079
C -0.000000 -1.389984 0.000001
C -0.000000 -0.723253 1.229079
F -0.000000 2.738084 -2.541628
F 0.000000 2.728828 0.000000
F -0.000000 -2.728828 0.000000
F -0.000000 -2.738084 -2.541628
F -0.000000 -1.342235 -4.830425
F 0.000000 1.342235 -4.830425
C 0.000000 1.403241 2.483664
C 0.000000 0.708006 3.658249
C -0.000000 -1.403241 2.483664
C -0.000000 -0.708006 3.658249
F 0.000000 2.738085 2.541623
F -0.000000 -2.738085 2.541623
F 0.000000 1.342231 4.830427
F -0.000000 -1.342231 4.830427
